Instance name:    bar-n100-6
Authors:          PDPTW Solver
Date:             2025-11-20
Reference:        LNS with SA/RTR
Solution
Route 1 : 4 29 79 37 12 87 54 48 34 62 84 98 5 17 67 45 95 55 35 85 14 64 39 27 77 89 36 86
Route 2 : 31 32 82 81 25 38 40 90 88 18 1 51 30 80 68 9 59 21 71 44 75 33 83 94
Route 3 : 43 47 93 16 66 22 97 72 28 42 19 92 6 56 69 23 73 78 3 11 61 53 15 46 96 65
Route 4 : 20 70 41 91 8 7 57 13 26 63 76 2 49 99 52 10 58 60 24 50 100 74
